
Gurobi 6.5.2 (win64) logging started 07/24/16 17:26:38


Gurobi 6.5.2 (win64) logging started 07/24/16 17:26:38

Optimize a model with 1475 rows, 605 columns and 3980 nonzeros
Coefficient statistics:
  Matrix range    [6e-08, 1e+03]
  Objective range [1e+00, 1e+00]
  Bounds range    [1e+00, 1e+00]
  RHS range       [6e-06, 2e+03]
Presolve removed 1266 rows and 387 columns
Presolve time: 0.00s
Presolved: 209 rows, 218 columns, 934 nonzeros
Variable types: 218 continuous, 0 integer (0 binary)

Root relaxation: objective 1.835523e+01, 220 iterations, 0.00 seconds

    Nodes    |    Current Node    |     Objective Bounds      |     Work
 Expl Unexpl |  Obj  Depth IntInf | Incumbent    BestBd   Gap | It/Node Time

*    0     0               0      18.3552265   18.35523  0.00%     -    0s

Explored 0 nodes (220 simplex iterations) in 0.02 seconds
Thread count was 8 (of 8 available processors)

Optimal solution found (tolerance 1.00e-04)
Best objective 1.835522648891e+01, best bound 1.835522648891e+01, gap 0.0%

Wrote requested result file 'H1\instance9\\Results9EC_Sol5.lp'

